65 7 47 48 35 32 27 1 6 33 59 21 62 43 39 3 1 16 23 10 15 4 37 36 1 18 52 40 8 55 64 12 1 22 26 20 25 53 11 9 1 30 41 60 57 45 1 46 42 17 51 61 38 31 1 50 44 28 5 1 56 54 19 14 13 2 34 1 63 29 24 58 49 1 65 7 47 48 35 32 27 1  (977)
Cost 1432.71

